NAME: ETSP
COMMENT: Generated by write_TSPLIB (R package TSP)
TYPE: TSP
DIMENSION: 3
EDGE_WEIGHT_TYPE: EUC_2D
NODE_COORD_SECTION
1 8.849181e+00 3.529141e+01
2 7.864666e+00 3.424328e+01
3 7.815433e+00 3.413229e+01
EOF
